
Gurobi 12.0.1 (linux64) logging started Fri Mar 21 09:46:16 2025

Set parameter LogFile to value "./results/k03_n049_d100/k03_n009_d100__BQO_log.txt"
Gurobi Optimizer version 12.0.1 build v12.0.1rc0 (linux64 - "Ubuntu 22.04.5 LTS")

CPU model: Intel(R) Core(TM) i9-14900K, instruction set [SSE2|AVX|AVX2]
Thread count: 32 physical cores, 32 logical processors, using up to 10 threads

Non-default parameters:
TimeLimit  3.5999980378150940e+03
MIPGap  0
LogToConsole  0
NonConvex  2
Threads  10

Optimize a model with 9 rows, 27 columns and 27 nonzeros
Model fingerprint: 0x07d4ee35
Model has 108 quadratic objective terms
Model has 1 quadratic constraint
Variable types: 0 continuous, 27 integer (27 binary)
Coefficient statistics:
  Matrix range     [1e+00, 1e+00]
  QMatrix range    [2e+00, 8e+00]
  Objective range  [0e+00, 0e+00]
  QObjective range [4e+00, 3e+01]
  Bounds range     [1e+00, 1e+00]
  RHS range        [1e+00, 1e+00]
  QRHS range       [5e+01, 5e+01]
Presolve removed 1 rows and 3 columns
Presolve time: 0.00s
Presolved: 261 rows, 108 columns, 720 nonzeros
Variable types: 0 continuous, 108 integer (108 binary)
Found heuristic solution: objective 161.5581516

Root relaxation: objective 2.050618e+02, 46 iterations, 0.00 seconds (0.00 work units)

    Nodes    |    Current Node    |     Objective Bounds      |     Work
 Expl Unexpl |  Obj  Depth IntInf | Incumbent    BestBd   Gap | It/Node Time

     0     0  205.06184    0   16  161.55815  205.06184  26.9%     -    0s
H    0     0                     194.9533071  205.06184  5.19%     -    0s
H    0     0                     194.9841612  205.06184  5.17%     -    0s
     0     0  199.06788    0   29  194.98416  199.06788  2.09%     -    0s
H    0     0                     196.8057705  199.06788  1.15%     -    0s
H    0     0                     197.9526231  199.06788  0.56%     -    0s

Cutting planes:
  Gomory: 3
  Implied bound: 6
  MIR: 1
  Zero half: 16
  RLT: 12
  BQP: 11

Explored 1 nodes (82 simplex iterations) in 0.01 seconds (0.01 work units)
Thread count was 10 (of 32 available processors)

Solution count 5: 197.953 196.806 194.984 ... 161.558

Optimal solution found (tolerance 0.00e+00)
Best objective 1.979526230840e+02, best bound 1.979526230840e+02, gap 0.0000%

Gurobi 12.0.1 (linux64) logging started Fri Mar 21 09:49:01 2025

Set parameter LogFile to value "./results/k03_n049_d100/k03_n009_d100__BQO_log.txt"
Gurobi Optimizer version 12.0.1 build v12.0.1rc0 (linux64 - "Ubuntu 22.04.5 LTS")

CPU model: Intel(R) Core(TM) i9-14900K, instruction set [SSE2|AVX|AVX2]
Thread count: 32 physical cores, 32 logical processors, using up to 10 threads

Non-default parameters:
TimeLimit  3.5999980409145355e+03
MIPGap  0
LogToConsole  0
NonConvex  2
Threads  10

Optimize a model with 9 rows, 27 columns and 27 nonzeros
Model fingerprint: 0x07d4ee35
Model has 108 quadratic objective terms
Model has 1 quadratic constraint
Variable types: 0 continuous, 27 integer (27 binary)
Coefficient statistics:
  Matrix range     [1e+00, 1e+00]
  QMatrix range    [2e+00, 8e+00]
  Objective range  [0e+00, 0e+00]
  QObjective range [4e+00, 3e+01]
  Bounds range     [1e+00, 1e+00]
  RHS range        [1e+00, 1e+00]
  QRHS range       [5e+01, 5e+01]
Presolve removed 1 rows and 3 columns
Presolve time: 0.00s
Presolved: 261 rows, 108 columns, 720 nonzeros
Variable types: 0 continuous, 108 integer (108 binary)
Found heuristic solution: objective 161.5581516

Root relaxation: objective 2.050618e+02, 46 iterations, 0.00 seconds (0.00 work units)

    Nodes    |    Current Node    |     Objective Bounds      |     Work
 Expl Unexpl |  Obj  Depth IntInf | Incumbent    BestBd   Gap | It/Node Time

     0     0  205.06184    0   16  161.55815  205.06184  26.9%     -    0s
H    0     0                     194.9533071  205.06184  5.19%     -    0s
H    0     0                     194.9841612  205.06184  5.17%     -    0s
     0     0  199.06788    0   29  194.98416  199.06788  2.09%     -    0s
H    0     0                     196.8057705  199.06788  1.15%     -    0s
H    0     0                     197.9526231  199.06788  0.56%     -    0s

Cutting planes:
  Gomory: 3
  Implied bound: 6
  MIR: 1
  Zero half: 16
  RLT: 12
  BQP: 11

Explored 1 nodes (82 simplex iterations) in 0.01 seconds (0.01 work units)
Thread count was 10 (of 32 available processors)

Solution count 5: 197.953 196.806 194.984 ... 161.558

Optimal solution found (tolerance 0.00e+00)
Best objective 1.979526230840e+02, best bound 1.979526230840e+02, gap 0.0000%

Gurobi 12.0.1 (linux64) logging started Sat Mar 22 15:17:18 2025

Set parameter LogFile to value "./results/k03_n049_d100/k03_n009_d100__BQO_log.txt"
Gurobi Optimizer version 12.0.1 build v12.0.1rc0 (linux64 - "Ubuntu 22.04.5 LTS")

CPU model: Intel(R) Core(TM) i9-14900K, instruction set [SSE2|AVX|AVX2]
Thread count: 32 physical cores, 32 logical processors, using up to 10 threads

Non-default parameters:
TimeLimit  3.5999980151653290e+03
MIPGap  0
LogToConsole  0
NonConvex  2
Threads  10

Optimize a model with 9 rows, 27 columns and 27 nonzeros
Model fingerprint: 0x07d4ee35
Model has 108 quadratic objective terms
Model has 1 quadratic constraint
Variable types: 0 continuous, 27 integer (27 binary)
Coefficient statistics:
  Matrix range     [1e+00, 1e+00]
  QMatrix range    [2e+00, 8e+00]
  Objective range  [0e+00, 0e+00]
  QObjective range [4e+00, 3e+01]
  Bounds range     [1e+00, 1e+00]
  RHS range        [1e+00, 1e+00]
  QRHS range       [5e+01, 5e+01]
Presolve removed 1 rows and 3 columns
Presolve time: 0.00s
Presolved: 261 rows, 108 columns, 720 nonzeros
Variable types: 0 continuous, 108 integer (108 binary)
Found heuristic solution: objective 161.5581516

Root relaxation: objective 2.050618e+02, 46 iterations, 0.00 seconds (0.00 work units)

    Nodes    |    Current Node    |     Objective Bounds      |     Work
 Expl Unexpl |  Obj  Depth IntInf | Incumbent    BestBd   Gap | It/Node Time

     0     0  205.06184    0   16  161.55815  205.06184  26.9%     -    0s
H    0     0                     194.9533071  205.06184  5.19%     -    0s
H    0     0                     194.9841612  205.06184  5.17%     -    0s
     0     0  199.06788    0   29  194.98416  199.06788  2.09%     -    0s
H    0     0                     196.8057705  199.06788  1.15%     -    0s
H    0     0                     197.9526231  199.06788  0.56%     -    0s

Cutting planes:
  Gomory: 3
  Implied bound: 6
  MIR: 1
  Zero half: 16
  RLT: 12
  BQP: 11

Explored 1 nodes (82 simplex iterations) in 0.01 seconds (0.01 work units)
Thread count was 10 (of 32 available processors)

Solution count 5: 197.953 196.806 194.984 ... 161.558

Optimal solution found (tolerance 0.00e+00)
Best objective 1.979526230840e+02, best bound 1.979526230840e+02, gap 0.0000%
